NAME : cutter.39478.tour
COMMENT : Length = 39478
COMMENT : Found by LKH [Keld Helsgaun] Wed Jan  2 23:23:07 2013
TYPE : TOUR
DIMENSION : 150
TOUR_SECTION
1
23
145
35
9
5
63
95
81
32
70
47
73
150
58
46
43
84
78
11
128
136
146
57
113
79
61
72
124
102
103
18
22
77
15
139
135
3
30
148
50
92
54
26
107
45
104
83
68
119
12
20
42
37
75
140
121
99
56
33
44
114
8
149
132
80
39
4
76
25
100
106
147
27
82
116
53
16
144
91
36
21
90
55
133
117
105
109
141
29
85
38
19
40
101
52
94
2
49
71
137
66
31
34
87
65
120
28
6
59
123
89
88
138
96
98
130
129
69
134
93
14
67
62
118
131
48
112
108
115
127
125
97
51
60
126
74
110
122
7
86
24
17
13
10
111
64
41
142
143
-1
EOF
